db/data/2668429182251801192642507059404012361.z3.out
sat
-------------------
391.460687503
